15	4	1.5
2 6   2 3 5 2 7 2 1 8 4 8 2 1 6 2 5 1 3 7 2 4 5 2 6 2 4 5 1 5
3 2 3 5
5 0 1 2 3 4
1 5   1 3 7 2 1 6 2 5 1 4 6 2 4 5 2 6 2 1 8 2 6
2 2 3
1 8   2 4 7 3 9 2 3 5 2 7 2 4 5 1 5 2 1 8 4 8 2 1 6 2 5 1 4 6 2 1 8 2 6 2 4 9 3 6
7 0 1 2 3 4 6 7
3 7   2 4 5 1 5 2 4 7 3 9 2 1 8 4 8 1 4 8 2 1 8 2 6 2 4 5 2 6 1 4 6
4 0 1 3 6
4 0 1 3 5
6 0 2 3 4 5 6
3 6   2 3 7 1 5 2 4 6 2 7 2 4 7 3 9 1 3 8 2 3 5 2 7 2 1 8 2 6
2 2 3
4 0 1 2 4
3 0 1 3
2 9   1 4 6 2 4 5 2 6 1 3 8 2 3 7 1 5 2 4 6 2 7 1 4 8 2 1 8 2 6 2 1 8 4 8 2 4 5 1 5
3 2 4 7
3 0 3 6
1 5   1 3 8 2 4 7 3 9 2 1 6 2 5 2 4 6 2 7 1 3 7
4 0 1 3 4
1 8   2 3 7 1 5 1 3 8 2 4 7 3 9 2 4 5 1 5 1 3 7 1 4 8 2 4 9 3 6 2 1 6 2 5
4 0 4 5 7
2 9   2 3 5 2 7 1 4 8 2 4 5 2 6 2 1 6 2 5 1 4 6 2 1 8 4 9 2 1 8 4 8 2 1 8 2 6 1 3 7
8 0 1 2 3 4 5 7 8
4 3 5 6 8
3 9   2 1 8 2 6 2 1 8 4 8 2 1 8 4 9 2 4 9 3 6 2 1 6 2 5 1 3 8 1 3 7 1 4 6 2 4 5 2 6
4 0 2 5 6
4 0 3 4 5
6 1 3 4 5 7 8
3 7   2 1 8 2 6 2 1 8 4 8 2 1 6 2 5 1 3 7 1 4 6 1 3 8 2 4 9 3 6
4 2 3 4 5
5 0 1 4 5 6
4 2 3 4 5
2 6   1 4 8 1 3 7 2 4 7 3 9 2 1 6 2 5 1 3 8 2 1 8 4 8
2 4 5
5 0 1 2 4 5
3 7   1 4 8 2 4 9 3 6 2 1 8 4 8 2 4 6 2 7 2 4 6 2 7 2 1 8 2 6 2 3 7 1 5
4 0 2 3 5
4 1 3 4 5
5 0 2 3 5 6
3 7   2 1 6 2 5 2 3 7 1 5 2 1 8 4 8 2 1 8 2 6 2 4 5 1 5 2 4 6 2 7 1 4 6
3 0 1 5
3 0 1 3
4 0 3 4 6
3 7   1 3 8 2 1 8 4 9 2 4 9 3 6 1 3 7 2 4 5 2 6 2 1 8 2 6 2 1 6 2 5
6 0 1 2 4 5 6
4 0 4 5 6
4 0 3 5 6
